1 of 1 MIP starts provided solutions.
MIP start 'm1' defined initial solution with objective 1299.1655.
Tried aggregator 1 time.
MIP Presolve eliminated 12 rows and 7 columns.
Reduced MIP has 3388 rows, 1943 columns, and 39634 nonzeros.
Reduced MIP has 1600 binaries, 0 generals, 0 SOSs, and 0 indicators.
Presolve time = 0.02 sec. (11.73 ticks)
Probing time = 0.00 sec. (3.49 ticks)
Tried aggregator 1 time.
Reduced MIP has 3388 rows, 1943 columns, and 39634 nonzeros.
Reduced MIP has 1600 binaries, 0 generals, 0 SOSs, and 0 indicators.
Presolve time = 0.02 sec. (11.74 ticks)
Probing time = 0.00 sec. (3.48 ticks)
Clique table members: 94.
MIP emphasis: balance optimality and feasibility.
MIP search method: dynamic search.
Parallel mode: none, using 1 thread.
Root relaxation solution time = 0.02 sec. (14.38 ticks)

        Nodes                                         Cuts/
   Node  Left     Objective  IInf  Best Integer    Best Bound    ItCnt     Gap

*     0+    0                         1299.1655     1356.9094      704    4.44%
      0     0     1348.9690    66     1299.1655     1348.9690      704    3.83%
      0     0     1315.4103    45     1299.1655     Cuts: 132      785    1.25%
      0     0     1308.0695    49     1299.1655      Cuts: 67      836    0.69%
      0     0     1304.6267    45     1299.1655      Cuts: 30      875    0.42%

Repeating presolve.
Tried aggregator 2 times.
MIP Presolve eliminated 988 rows and 940 columns.
MIP Presolve modified 2062 coefficients.
Aggregator did 3 substitutions.
Reduced MIP has 2397 rows, 1000 columns, and 18462 nonzeros.
Reduced MIP has 696 binaries, 0 generals, 0 SOSs, and 0 indicators.
Presolve time = 0.04 sec. (22.47 ticks)
Probing fixed 0 vars, tightened 20 bounds.
Probing time = 0.01 sec. (7.46 ticks)
Cover probing fixed 0 vars, tightened 55 bounds.
Tried aggregator 1 time.
MIP Presolve eliminated 15 rows and 4 columns.
MIP Presolve modified 2730 coefficients.
Reduced MIP has 2382 rows, 996 columns, and 18006 nonzeros.
Reduced MIP has 692 binaries, 0 generals, 0 SOSs, and 0 indicators.
Presolve time = 0.03 sec. (15.42 ticks)
Represolve time = 0.08 sec. (48.92 ticks)
Probing time = 0.01 sec. (2.64 ticks)
Clique table members: 703.
MIP emphasis: balance optimality and feasibility.
MIP search method: dynamic search.
Parallel mode: none, using 1 thread.
Root relaxation solution time = 0.02 sec. (11.25 ticks)

        Nodes                                         Cuts/
   Node  Left     Objective  IInf  Best Integer    Best Bound    ItCnt     Gap

*     0+    0                         1299.1655     1304.6267     1563    0.42%
      0     0     1304.6267    45     1299.1655     1304.6267     1563    0.42%
      0     2     1304.6267    45     1299.1655     1304.6035     1563    0.42%
Elapsed time = 0.40 sec. (259.14 ticks, tree = 0.00 MB, solutions = 1)
    184    27        cutoff           1299.1655     1299.7422     2315    0.04%

Implied bound cuts applied:  69
Flow cuts applied:  18
Mixed integer rounding cuts applied:  26
Gomory fractional cuts applied:  29

Root node processing (before b&c):
  Real time             =    0.40 sec. (259.09 ticks)
Sequential b&c:
  Real time             =    0.31 sec. (280.54 ticks)
                          ------------
Total (root+branch&cut) =    0.71 sec. (539.63 ticks)
